/* Objective function */
max: +21 C1 +19.3 C2 +19.2 C3 +18.8 C4 +18.5 C5 +16.6 C6 +16.4 C7 +16.4 C8 +16 C9 +16 C10 +14.9 C11 +14.6 C12
 +14 C13 +13.9 C14 +12 C15 +5.5 C16 +24.6 C17;

/* Constraints */
+C3 +C12 +C15 +C17 = 1;
+C8 +C10 +C12 +C13 +C16 +C17 = 1;
+C6 +C7 +C11 +C13 +C15 = 1;
+C1 +C2 +C4 +C5 +C9 = 1;
+8800 C1 +8500 C2 +7600 C3 +8600 C4 +8400 C5 +7500 C6 +7000 C7 +8500 C8 +8800 C9 +7700 C10 +6700 C11
 +5500 C12 +1200 C13 +6700 C14 +9500 C15 +8700 C16 +6500 C17 <= 25000;
R6: +C7 <= 3;
R7: +C6 <= 3;
R8: +C3 <= 3;
+C6 +C11 +C14 +C16 -C18 = 0;
+C3 +C9 +C12 +C13 -C19 = 0;
+C3 +C8 -C20 = 0;
+C4 +C10 +C12 +C13 +C14 +C16 -C21 = 0;
+C2 +C8 +C16 -C22 = 0;
+C4 +C15 -C23 = 0;
+C8 +C11 -C24 = 0;

/* Variable bounds */
C1 <= 1;
C2 <= 1;
C3 <= 1;
C4 <= 1;
C5 <= 1;
C6 <= 1;
C7 <= 1;
C8 <= 1;
C9 <= 1;
C10 <= 1;
C11 <= 1;
C12 <= 1;
C13 <= 1;
C14 <= 1;
C15 <= 1;
C16 <= 1;
C17 <= 1;
C18 >= 1.9;
C19 >= 1.9;
C20 >= 1.9;
C21 >= 1.9;
C22 >= 1.9;
C23 >= 1.9;
C24 >= 1.9;

/* Integer definitions */
int C1,C2,C3,C4,C5,C6,C7,C8,C9,C10,C11,C12,C13,C14,C15,C16,C17,C18,C19,C20,C21,C22,C23,C24;

/* Semi-continuous variables */
sec C18,C19,C20,C21,C22,C23,C24;
